20	5
0	7	7	2	3	4	1	5	6
1	2	13	18
2	1	16
3	2	13	15
4	1	13
5	1	16
6	2	10	14
7	2	11	16
8	1	21
9	1	12
10	2	8	21
11	3	14	10	9
12	1	21
13	1	19
14	1	21
15	1	21
16	1	21
17	1	21
18	1	21
19	1	21
20	1	21
21	0
0	0	0	0	0	0	0
1	7	5	2	2	5	3
2	3	2	3	5	1	1
3	9	1	1	5	2	2
4	1	3	2	2	5	3
5	3	4	2	5	2	2
6	8	3	4	4	1	2
7	7	1	4	1	4	2
8	7	2	1	4	2	2
9	7	5	1	3	4	5
10	1	2	3	5	1	4
11	7	5	2	1	2	3
12	9	4	5	3	4	4
13	2	4	1	2	1	3
14	4	4	3	1	2	3
15	1	2	2	4	5	4
16	7	5	2	1	4	4
17	8	3	3	1	2	2
18	4	1	5	4	5	3
19	4	5	4	4	2	1
20	2	1	1	5	5	4
21	0	0	0	0	0	0
13	10	10	12	12
